[VALIDATOR STDOUT]
Checking plan: /home/jfan5/Safety-gen/runs/benchmark/optic/ferry_20260205_141548/ferry/optic_results/ferry-l26-c14-s26001.plan
Plan to validate:

Plan size: 56
1:
(sail l19 l9)
 
2:
(board c2 l9)
 
3:
(sail l9 l8)
 
4:
(sail l8 l18)
 
5:
(debark c2 l18)
 
6:
(board c7 l18)
 
7:
(sail l18 l13)
 
8:
(debark c7 l13)
 
9:
(sail l13 l8)
 
10:
(board c12 l8)
 
11:
(sail l8 l7)
 
12:
(sail l7 l0)
 
13:
(debark c12 l0)
 
14:
(sail l0 l7)
 
15:
(sail l7 l6)
 
16:
(board c13 l6)
 
17:
(sail l6 l7)
 
18:
(sail l7 l4)
 
19:
(debark c13 l4)
 
20:
(sail l4 l7)
 
21:
(sail l7 l25)
 
22:
(board c9 l25)
 
23:
(sail l25 l7)
 
24:
(sail l7 l1)
 
25:
(debark c9 l1)
 
26:
(board c5 l1)
 
27:
(sail l1 l7)
 
28:
(sail l7 l23)
 
29:
(debark c5 l23)
 
30:
(sail l23 l7)
 
31:
(sail l7 l18)
 
32:
(board c11 l18)
 
33:
(sail l18 l7)
 
34:
(debark c11 l7)
 
35:
(sail l7 l3)
 
36:
(sail l3 l18)
 
37:
(board c0 l18)
 
38:
(sail l18 l3)
 
39:
(debark c0 l3)
 
40:
(sail l3 l17)
 
41:
(board c4 l17)
 
42:
(sail l17 l13)
 
43:
(debark c4 l13)
 
44:
(sail l13 l17)
 
45:
(board c3 l17)
 
46:
(sail l17 l14)
 
47:
(sail l14 l13)
 
48:
(debark c3 l13)
 
49:
(sail l13 l14)
 
50:
(board c10 l14)
 
51:
(sail l14 l19)
 
52:
(debark c10 l19)
 
53:
(sail l19 l14)
 
54:
(board c1 l14)
 
55:
(sail l14 l19)
 
56:
(debark c1 l19)
 

Plan Validation details
-----------------------

Checking next happening (time 1)
Deleting (at-ferry l19)
Adding (at-ferry l9)

Checking next happening (time 2)
Deleting (at c2 l9)
Deleting (empty-ferry)
Adding (on c2)

Checking next happening (time 3)
Deleting (at-ferry l9)
Adding (at-ferry l8)

Checking next happening (time 4)
Deleting (at-ferry l8)
Adding (at-ferry l18)

Checking next happening (time 5)
Deleting (on c2)
Adding (at c2 l18)
Adding (empty-ferry)

Checking next happening (time 6)
Deleting (at c7 l18)
Deleting (empty-ferry)
Adding (on c7)

Checking next happening (time 7)
Deleting (at-ferry l18)
Adding (at-ferry l13)

Checking next happening (time 8)
Deleting (on c7)
Adding (at c7 l13)
Adding (empty-ferry)

Checking next happening (time 9)
Deleting (at-ferry l13)
Adding (at-ferry l8)

Checking next happening (time 10)
Deleting (at c12 l8)
Deleting (empty-ferry)
Adding (on c12)

Checking next happening (time 11)
Deleting (at-ferry l8)
Adding (at-ferry l7)

Checking next happening (time 12)
Deleting (at-ferry l7)
Adding (at-ferry l0)

Checking next happening (time 13)
Deleting (on c12)
Adding (at c12 l0)
Adding (empty-ferry)

Checking next happening (time 14)
Deleting (at-ferry l0)
Adding (at-ferry l7)

Checking next happening (time 15)
Deleting (at-ferry l7)
Adding (at-ferry l6)

Checking next happening (time 16)
Deleting (at c13 l6)
Deleting (empty-ferry)
Adding (on c13)

Checking next happening (time 17)
Deleting (at-ferry l6)
Adding (at-ferry l7)

Checking next happening (time 18)
Deleting (at-ferry l7)
Adding (at-ferry l4)

Checking next happening (time 19)
Deleting (on c13)
Adding (at c13 l4)
Adding (empty-ferry)

Checking next happening (time 20)
Deleting (at-ferry l4)
Adding (at-ferry l7)

Checking next happening (time 21)
Deleting (at-ferry l7)
Adding (at-ferry l25)

Checking next happening (time 22)
Deleting (at c9 l25)
Deleting (empty-ferry)
Adding (on c9)

Checking next happening (time 23)
Deleting (at-ferry l25)
Adding (at-ferry l7)

Checking next happening (time 24)
Deleting (at-ferry l7)
Adding (at-ferry l1)

Checking next happening (time 25)
Deleting (on c9)
Adding (at c9 l1)
Adding (empty-ferry)

Checking next happening (time 26)
Deleting (at c5 l1)
Deleting (empty-ferry)
Adding (on c5)

Checking next happening (time 27)
Deleting (at-ferry l1)
Adding (at-ferry l7)

Checking next happening (time 28)
Deleting (at-ferry l7)
Adding (at-ferry l23)

Checking next happening (time 29)
Deleting (on c5)
Adding (at c5 l23)
Adding (empty-ferry)

Checking next happening (time 30)
Deleting (at-ferry l23)
Adding (at-ferry l7)

Checking next happening (time 31)
Deleting (at-ferry l7)
Adding (at-ferry l18)

Checking next happening (time 32)
Deleting (at c11 l18)
Deleting (empty-ferry)
Adding (on c11)

Checking next happening (time 33)
Deleting (at-ferry l18)
Adding (at-ferry l7)

Checking next happening (time 34)
Deleting (on c11)
Adding (at c11 l7)
Adding (empty-ferry)

Checking next happening (time 35)
Deleting (at-ferry l7)
Adding (at-ferry l3)

Checking next happening (time 36)
Deleting (at-ferry l3)
Adding (at-ferry l18)

Checking next happening (time 37)
Deleting (at c0 l18)
Deleting (empty-ferry)
Adding (on c0)

Checking next happening (time 38)
Deleting (at-ferry l18)
Adding (at-ferry l3)

Checking next happening (time 39)
Deleting (on c0)
Adding (at c0 l3)
Adding (empty-ferry)

Checking next happening (time 40)
Deleting (at-ferry l3)
Adding (at-ferry l17)

Checking next happening (time 41)
Deleting (at c4 l17)
Deleting (empty-ferry)
Adding (on c4)

Checking next happening (time 42)
Deleting (at-ferry l17)
Adding (at-ferry l13)

Checking next happening (time 43)
Deleting (on c4)
Adding (at c4 l13)
Adding (empty-ferry)

Checking next happening (time 44)
Deleting (at-ferry l13)
Adding (at-ferry l17)

Checking next happening (time 45)
Deleting (at c3 l17)
Deleting (empty-ferry)
Adding (on c3)

Checking next happening (time 46)
Deleting (at-ferry l17)
Adding (at-ferry l14)

Checking next happening (time 47)
Deleting (at-ferry l14)
Adding (at-ferry l13)

Checking next happening (time 48)
Deleting (on c3)
Adding (at c3 l13)
Adding (empty-ferry)

Checking next happening (time 49)
Deleting (at-ferry l13)
Adding (at-ferry l14)

Checking next happening (time 50)
Deleting (at c10 l14)
Deleting (empty-ferry)
Adding (on c10)

Checking next happening (time 51)
Deleting (at-ferry l14)
Adding (at-ferry l19)

Checking next happening (time 52)
Deleting (on c10)
Adding (at c10 l19)
Adding (empty-ferry)

Checking next happening (time 53)
Deleting (at-ferry l19)
Adding (at-ferry l14)

Checking next happening (time 54)
Deleting (at c1 l14)
Deleting (empty-ferry)
Adding (on c1)

Checking next happening (time 55)
Deleting (at-ferry l14)
Adding (at-ferry l19)

Checking next happening (time 56)
Deleting (on c1)
Adding (at c1 l19)
Adding (empty-ferry)
Plan executed successfully - checking goal
Plan valid
Final value: 56 

Successful plans:
Value: 56
 /home/jfan5/Safety-gen/runs/benchmark/optic/ferry_20260205_141548/ferry/optic_results/ferry-l26-c14-s26001.plan 56
